
  22   10
  10   10   10   10   10   10   10   10   10   10

   0   0   0   0   0   0   0   0   0   0   0   7 2 3 4 8 14 15 16 
   9   0   0  10   0   0   0   0   0   0   0   3 13 6 5 
   5  10   0   0   0   0   0   0   0   0   0   5 20 13 12 9 7 
   1   0  10   0   0   0   0   0   0   0   0   3 13 12 5 
   5   0   0  10   0   0   0   0   0   0   0   2 20 7 
   8  10   0   0   0   0   0   0   0   0   0   4 20 19 12 11 
   6   0   0   0   0  10   0   0   0   0   0   3 19 18 10 
   2   0   0   0   0   0   0   0  10   0   0   3 19 18 17 
   1   0   0   0  10   0   0   0   0   0   0   2 19 11 
   3   0  10   0   0   0   0   0   0   0   0   1 11 
   1   0   0   0   0   0   0   0   0   0  10   1 17 
   1   0   0  10   0   0   0   0   0   0   0   1 18 
   5   0   0   0   0   0   0   0  10   0   0   1 21 
   9   0   0   0   0   0   0   0  10   0   0   1 21 
   9   0  10   0   0   0   0   0   0   0   0   1 20 
   8   0   0   0   0  10   0   0   0   0   0   1 18 
   9   0  10   0   0   0   0   0   0   0   0   1 22
   3   0   0  10   0   0   0   0   0   0   0   1 22
   2   0   0   0   0  10   0   0   0   0   0   1 22
  10   0   0  10   0   0   0   0   0   0   0   1 22
  10   0   0   0   0   0  10   0   0   0   0   1 22
   0   0   0   0   0   0   0   0   0   0   0   0 
